p cnf 33 95
2 1 0
2 -1 0
-5 -3 0
-5 4 0
3 -4 5 0
2 5 -6 0
-2 -5 -6 0
2 -5 6 0
-2 5 6 0
10 8 0
10 9 0
-8 -9 -10 0
-11 -7 0
-11 10 0
7 -10 11 0
11 12 -13 0
-11 -12 -13 0
11 -12 13 0
-11 12 13 0
-14 13 0
-14 4 0
-13 -4 14 0
-15 7 0
-15 12 0
-7 -12 15 0
-15 16 0
15 16 0
-18 -17 0
-18 1 0
17 -1 18 0
-19 -16 0
-19 -18 0
16 18 19 0
20 4 0
20 7 0
-4 -7 -20 0
-21 19 0
-21 -20 0
-19 20 21 0
-23 9 0
-23 -7 0
-9 7 23 0
24 -22 0
24 23 0
22 -23 -24 0
-25 11 0
-25 4 0
-11 -4 25 0
-25 26 -27 0
25 -26 -27 0
-25 -26 27 0
25 26 27 0
-28 24 0
-28 27 0
-24 -27 28 0
29 -17 0
29 -1 0
17 1 -29 0
30 28 0
30 -29 0
-28 29 -30 0
21 30 -31 0
-21 -30 -31 0
21 -30 31 0
-21 30 31 0
14 -31 -32 0
-14 31 -32 0
14 31 32 0
-14 -31 32 0
33 6 0
33 32 0
-6 -32 -33 0
-30 -25 -7 0
-13 33 18 14 0
20 18 -6 -30 -2 0
-18 -3 17 -1 0
-10 -19 22 0
-14 -5 0
26 13 0
-8 -18 0
-7 -17 13 0
18 13 14 0
-22 -24 -13 0
-33 -15 4 -27 3 0
8 -18 0
19 3 -23 14 0
-29 4 26 -10 0
-12 10 0
27 2 12 -25 0
-4 -21 8 0
14 -30 -9 0
29 7 -22 27 0
-1 -8 -20 30 -25 0
18 -27 31 10 -24 0
33 0
